1 636030407
2 636030407
3 636030407
4 636030407
5 635545993
6 635545993
7 635545993
8 635545993
9 635545993
10 635545993
11 627130153
12 627130153
13 627130153
14 627130153
15 627130153
16 627130153
17 627130153
18 627130153
19 627130153
20 627130153
21 627130153
22 627130153
23 627130153
24 627130153
25 627130153
26 627130153
27 627130153
28 617928142
29 617928142
30 617928142
31 617928142
32 617928142
33 617928142
34 617928142
35 617928142
36 617928142
37 617928142
38 617928142
39 617928142
40 617928142
41 617928142
42 617928142
43 617928142
44 617928142
45 617928142
46 617928142
47 617928142
48 617928142
49 610247870
50 610247870
51 610247870
52 610247870
53 610247870
54 610247870
55 602900138
56 602900138
57 602900138
58 602900138
59 602900138
60 602900138
61 602900138
62 602900138
63 602900138
64 602900138
65 602900138
66 602900138
67 602900138
68 602900138
69 602900138
70 601961049
71 601961049
72 598910951
73 598910951
74 598910951
75 598910951
76 597160294
77 597160294
78 597160294
79 597160294
80 597160294
81 597160294
82 597160294
83 597160294
84 597160294
85 597160294
86 597160294
87 597160294
88 597160294
89 597160294
90 597160294
91 597160294
92 597160294
93 597160294
94 597160294
95 597160294
96 597160294
97 597160294
98 597160294
99 597160294
100 597160294
101 597160294
102 597160294
103 597160294
104 583253116
105 583253116
106 583253116
107 583253116
108 583253116
109 583253116
110 583253116
111 583253116
112 583253116
113 583253116
114 583253116
115 583253116
116 583253116
117 583253116
118 583253116
119 583253116
120 583253116
121 583253116
122 583253116
123 583253116
124 583253116
125 583253116
126 583253116
127 583253116
128 583253116
129 583253116
130 583253116
131 583253116
132 583253116
133 583253116
134 583253116
135 583253116
136 583253116
137 583253116
138 583253116
139 583253116
140 583253116
141 583253116
142 583253116
143 583253116
144 583253116
145 583253116
146 583253116
147 583253116
148 583253116
149 583253116
150 583253116
151 583253116
152 583253116
153 583253116
154 583253116
155 583253116
156 583253116
157 583253116
158 583253116
159 583253116
160 583253116
161 583253116
162 583253116
163 583253116
164 583253116
165 583253116
166 583253116
167 583253116
168 583253116
169 583253116
170 583253116
171 583253116
172 583253116
173 583253116
174 583253116
175 583253116
176 583253116
177 583253116
178 583253116
179 583253116
180 583253116
181 583253116
182 583253116
183 583253116
184 583253116
185 583253116
186 583253116
187 583253116
188 583253116
189 583253116
190 583253116
191 583253116
192 583253116
193 583253116
194 583253116
195 583253116
196 583253116
197 583253116
198 583253116
199 583253116
200 583253116
201 583253116
202 583253116
203 583253116
204 583253116
205 583253116
206 583253116
207 583253116
208 583253116
209 583253116
210 583253116
211 583253116
212 583253116
213 583253116
214 583253116
215 583253116
216 583253116
217 583253116
218 583253116
219 583253116
220 583253116
221 583253116
222 583253116
223 583253116
224 583253116
225 583253116
226 583253116
227 583253116
228 583253116
229 583253116
230 583253116
231 583253116
232 583253116
233 583253116
234 583253116
235 583253116
236 583253116
237 583253116
238 583253116
239 583253116
240 583253116
241 583253116
242 583253116
243 583253116
244 583253116
245 583253116
246 583253116
247 583253116
248 583253116
249 583253116
250 583253116
 
